certificates/rado_a9_c96_N22.cnf
c Rad2 upper bound instance: x1 + 9*x2 - x3 = 96, interval [1,22]
p cnf 22 106
1 4 11 0
-1 -4 -11 0
1 12 13 0
-1 -12 -13 0
1 13 22 0
-1 -13 -22 0
2 5 11 0
-2 -5 -11 0
2 12 14 0
-2 -12 -14 0
3 6 11 0
-3 -6 -11 0
3 12 15 0
-3 -12 -15 0
4 7 11 0
-4 -7 -11 0
4 12 16 0
-4 -12 -16 0
5 8 11 0
-5 -8 -11 0
5 12 17 0
-5 -12 -17 0
6 9 11 0
-6 -9 -11 0
6 12 18 0
-6 -12 -18 0
1 7 10 0
-1 -7 -10 0
7 10 11 0
-7 -10 -11 0
7 12 19 0
-7 -12 -19 0
2 8 10 0
-2 -8 -10 0
8 11 0
-8 -11 0
8 12 20 0
-8 -12 -20 0
3 9 10 0
-3 -9 -10 0
9 11 12 0
-9 -11 -12 0
9 12 21 0
-9 -12 -21 0
4 10 0
-4 -10 0
10 11 13 0
-10 -11 -13 0
10 12 22 0
-10 -12 -22 0
5 10 11 0
-5 -10 -11 0
11 14 0
-11 -14 0
6 10 12 0
-6 -10 -12 0
11 12 15 0
-11 -12 -15 0
7 10 13 0
-7 -10 -13 0
11 13 16 0
-11 -13 -16 0
8 10 14 0
-8 -10 -14 0
11 14 17 0
-11 -14 -17 0
9 10 15 0
-9 -10 -15 0
11 15 18 0
-11 -15 -18 0
1 9 16 0
-1 -9 -16 0
10 16 0
-10 -16 0
11 16 19 0
-11 -16 -19 0
2 9 17 0
-2 -9 -17 0
10 11 17 0
-10 -11 -17 0
11 17 20 0
-11 -17 -20 0
3 9 18 0
-3 -9 -18 0
10 12 18 0
-10 -12 -18 0
11 18 21 0
-11 -18 -21 0
4 9 19 0
-4 -9 -19 0
10 13 19 0
-10 -13 -19 0
11 19 22 0
-11 -19 -22 0
5 9 20 0
-5 -9 -20 0
10 14 20 0
-10 -14 -20 0
6 9 21 0
-6 -9 -21 0
10 15 21 0
-10 -15 -21 0
7 9 22 0
-7 -9 -22 0
10 16 22 0
-10 -16 -22 0
