certificates/rado_a9_c96_N22.drat
-19 -20 -22 0
-14 -20 -22 0
-20 -22 0
d -19 -20 -22 0
14 -22 0
-22 0
10 0
-4 0
-16 0
12 0
-18 0
-6 0
-14 0
11 0
-8 0
-7 0
-13 0
-5 0
-17 0
-15 0
-9 0
0
